
Log started (V11.0.0) Tue May 13 17:40:02 2008

Tried aggregator 1 time.
Reduced MIP has 120 rows, 2001 columns, and 4020 nonzeros.
Presolve time =    0.01 sec.
Clique table members: 100.
MIP emphasis: balance optimality and feasibility.
MIP search method: dynamic search.
Parallel mode: none, using 1 thread.
Root relaxation solution time =    0.03 sec.

        Nodes                                         Cuts/
   Node  Left     Objective  IInf  Best Integer     Best Node    ItCnt     Gap

*     0+    0                         7021.0000      146.2081      281   97.92%
*     0+    0                          225.0000      146.2081      281   35.02%
      0     0      147.6174    37      225.0000      Fract: 5      306   34.39%
*     0+    0                          191.0000      147.6174      306   22.71%
      0     0      150.2918    47      191.0000   MIRcuts: 14      479   21.31%
*     0+    0                          186.0000      150.2918      479   19.20%
      0     0      151.0402    58      186.0000      Cuts: 12      575   18.80%
*     0+    0                          184.0000      151.0402      575   17.91%
      0     0      151.2599    62      184.0000    MIRcuts: 7      624   17.79%
*     0+    0                          176.0000      151.2599      624   14.06%
      0     0      151.4699    66      176.0000       Cuts: 6      707   13.94%
*     0+    0                          171.0000      151.4699      707   11.42%
      0     0      151.6729    69      171.0000      Cuts: 10      749   11.30%
*     0+    0                          168.0000      151.6729      749    9.72%
      0     0      151.8030    66      168.0000       Cuts: 6      787    9.64%
      0     0      151.8344    73      168.0000       Cuts: 8      835    9.62%
      0     0      151.8516    81      168.0000    MIRcuts: 6      888    9.61%
*     0+    0                          167.0000      151.8516      888    9.07%
      0     0      152.0020    77      167.0000       Cuts: 4      919    8.98%
*     0+    0                          166.0000      152.0020      919    8.43%
      0     0      152.0464    74      166.0000       Cuts: 6      951    8.41%
      0     0      152.3781    78      166.0000       Cuts: 6      970    8.21%
      0     0      152.3781    77      166.0000       Cuts: 2      983    8.21%
      0     0      152.5089    77      166.0000       Cuts: 4      992    8.13%
*     0+    0                          165.0000      152.5089      992    7.57%
      0     0      152.5104    79      165.0000    MIRcuts: 2     1009    7.57%
*     0+    0                          163.0000      152.5104     1009    6.44%
*     0+    0                          162.0000      152.5104     1009    5.86%
*     0+    0                          161.0000      152.5104     1009    5.27%
*     0+    0                          159.0000      152.5104     1009    4.08%
      0     2      153.0000    74      159.0000      152.5104     1009    4.08%
    100    76      153.0000    36      159.0000      153.0000     5522    3.77%
    200   152      155.0000    18      159.0000      153.0000     8252    3.77%
    300   218      157.0295    27      159.0000      153.0000    10455    3.77%
    400   272      156.3035    23      159.0000      153.0000    12137    3.77%
    500   336      158.0000    14      159.0000      156.6016    13765    1.51%
    600   348      158.0000    10      159.0000      156.6016    15772    1.51%
*   651+    1                          157.0000      157.0000    16721    0.00%

Cover cuts applied:  25
Mixed integer rounding cuts applied:  17
Zero-half cuts applied:  2
Gomory fractional cuts applied:  1

Solution pool: 16 solutions saved.

MIP - Integer optimal solution:  Objective = 1.5700000000e+002
Solution time =    8.63 sec.  Iterations = 16721  Nodes = 651


Incumbent solution
Variable Name           Solution Value
Cmax                        157.000000
X_1_10                        1.000000
X_2_13                        1.000000
X_3_2                         1.000000
X_4_5                         1.000000
X_5_4                         1.000000
X_6_4                         1.000000
X_7_17                        1.000000
X_8_20                        1.000000
X_9_20                        1.000000
X_10_4                        1.000000
X_11_15                       1.000000
X_12_16                       1.000000
X_13_4                        1.000000
X_14_18                       1.000000
X_15_19                       1.000000
X_16_14                       1.000000
X_17_18                       1.000000
X_18_10                       1.000000
X_19_18                       1.000000
X_20_4                        1.000000
X_21_19                       1.000000
X_22_12                       1.000000
X_23_9                        1.000000
X_24_18                       1.000000
X_25_16                       1.000000
X_26_11                       1.000000
X_27_6                        1.000000
X_28_10                       1.000000
X_29_7                        1.000000
X_30_7                        1.000000
X_31_10                       1.000000
X_32_3                        1.000000
X_33_18                       1.000000
X_34_7                        1.000000
X_35_4                        1.000000
X_36_7                        1.000000
X_37_16                       1.000000
X_38_11                       1.000000
X_39_10                       1.000000
X_40_5                        1.000000
X_41_18                       1.000000
X_42_11                       1.000000
X_43_6                        1.000000
X_44_5                        1.000000
X_45_18                       1.000000
X_46_19                       1.000000
X_47_17                       1.000000
X_48_18                       1.000000
X_49_18                       1.000000
X_50_18                       1.000000
X_51_10                       1.000000
X_52_13                       1.000000
X_53_4                        1.000000
X_54_1                        1.000000
X_55_19                       1.000000
X_56_19                       1.000000
X_57_18                       1.000000
X_58_5                        1.000000
X_59_9                        1.000000
X_60_5                        1.000000
X_61_7                        1.000000
X_62_2                        1.000000
X_63_11                       1.000000
X_64_8                        1.000000
X_65_4                        1.000000
X_66_7                        1.000000
X_67_4                        1.000000
X_68_18                       1.000000
X_69_5                        1.000000
X_70_3                        1.000000
X_71_16                       1.000000
X_72_14                       1.000000
X_73_19                       1.000000
X_74_19                       1.000000
X_75_3                        1.000000
X_76_7                        1.000000
X_77_15                       1.000000
X_78_11                       1.000000
X_79_6                        1.000000
X_80_8                        1.000000
X_81_6                        1.000000
X_82_17                       1.000000
X_83_12                       1.000000
X_84_4                        1.000000
X_85_5                        1.000000
X_86_19                       1.000000
X_87_5                        1.000000
X_88_7                        1.000000
X_89_18                       1.000000
X_90_1                        1.000000
X_91_5                        1.000000
X_92_7                        1.000000
X_93_4                        1.000000
X_94_5                        1.000000
X_95_5                        1.000000
X_96_18                       1.000000
X_97_18                       1.000000
X_98_4                        1.000000
X_99_18                       1.000000
X_100_5                       1.000000
All other variables in the range 1-2001 are 0.
